CPXPARAM_TimeLimit                               3600
CPXPARAM_Read_DataCheck                          1
Parallel mode: deterministic, using up to 8 threads for concurrent optimization.
Tried aggregator 1 time.
LP Presolve eliminated 437 rows and 0 columns.
Reduced LP has 588133 rows, 189676 columns, and 2128466 nonzeros.
Presolve time = 0.23 sec. (338.35 ticks)

Iteration log . . .
Iteration:     1   Dual objective     =           972.000000
Perturbation started.
Iteration:   770   Dual objective     =           972.000000
Iteration:  1402   Dual objective     =           972.002989
Iteration:  1737   Dual objective     =           972.003925
Iteration:  1895   Dual objective     =           972.004604
Initializing dual steep norms . . .
Iteration:  1896   Dual objective     =           972.004615
Iteration:  3259   Dual objective     =           972.006979
Iteration:  4744   Dual objective     =           972.008179
Iteration:  5973   Dual objective     =           972.009073
Iteration:  7199   Dual objective     =           972.010444
Elapsed time = 31.92 sec. (10002.81 ticks, 7257 iterations)
Iteration:  8282   Dual objective     =           972.011004
Iteration:  9245   Dual objective     =           972.011708
Iteration: 10637   Dual objective     =           972.013494
Iteration: 12354   Dual objective     =           972.015045
Iteration: 13004   Dual objective     =           972.015657
Iteration: 14068   Dual objective     =           972.017268
Iteration: 15745   Dual objective     =           972.018573
Elapsed time = 77.74 sec. (20008.88 ticks, 16175 iterations)
Iteration: 16724   Dual objective     =           972.019527
Iteration: 17764   Dual objective     =           972.020099
Iteration: 19669   Dual objective     =           972.021430
Iteration: 21183   Dual objective     =           972.023498
Iteration: 22262   Dual objective     =           972.024032
Iteration: 23377   Dual objective     =           972.025025
Iteration: 24824   Dual objective     =           972.025911
Iteration: 25834   Dual objective     =           972.026317
Iteration: 26812   Dual objective     =           972.026734
Elapsed time = 122.69 sec. (30009.61 ticks, 27672 iterations)
Iteration: 28137   Dual objective     =           972.027851
Iteration: 29212   Dual objective     =           972.028830
Iteration: 30096   Dual objective     =           972.029449
Iteration: 31259   Dual objective     =           972.029996
Iteration: 32799   Dual objective     =           972.031266
Iteration: 33819   Dual objective     =           972.031901
Iteration: 34503   Dual objective     =           972.032390
Elapsed time = 166.53 sec. (40011.16 ticks, 34715 iterations)
Iteration: 35882   Dual objective     =           972.033810
Iteration: 37272   Dual objective     =           972.034505
Iteration: 38016   Dual objective     =           972.035048
Iteration: 38805   Dual objective     =           972.035457
Iteration: 39980   Dual objective     =           972.036909
Iteration: 40970   Dual objective     =           972.040399
Iteration: 42873   Dual objective     =           972.041214
Iteration: 43708   Dual objective     =           972.041460
Iteration: 44837   Dual objective     =           972.042784
Iteration: 46069   Dual objective     =           972.043395
Elapsed time = 222.54 sec. (50011.21 ticks, 46741 iterations)
Iteration: 46887   Dual objective     =           972.044148
Iteration: 47605   Dual objective     =           972.044799
Iteration: 48259   Dual objective     =           972.047177
Iteration: 49407   Dual objective     =           972.047765
Iteration: 50024   Dual objective     =           972.048372
Iteration: 51073   Dual objective     =           972.048798
Iteration: 51895   Dual objective     =           972.049511
Elapsed time = 287.14 sec. (60011.42 ticks, 52741 iterations)
Iteration: 52798   Dual objective     =           972.049956
Iteration: 53891   Dual objective     =           972.050270
Iteration: 54638   Dual objective     =           972.051662
Iteration: 55842   Dual objective     =           972.052428
Iteration: 56513   Dual objective     =           972.053183
Iteration: 57725   Dual objective     =           972.053762
Iteration: 58310   Dual objective     =           972.054227
Iteration: 59055   Dual objective     =           972.055202
Elapsed time = 353.15 sec. (70011.99 ticks, 59667 iterations)
Iteration: 59814   Dual objective     =           972.056967
Iteration: 60613   Dual objective     =           972.057716
Iteration: 61640   Dual objective     =           972.057724
Iteration: 62835   Dual objective     =           972.058388
Iteration: 63528   Dual objective     =           972.059345
Iteration: 64292   Dual objective     =           972.059937
Iteration: 65247   Dual objective     =           972.061333
Iteration: 66066   Dual objective     =           972.061897
Iteration: 66929   Dual objective     =           972.062817
Elapsed time = 421.92 sec. (80013.83 ticks, 67362 iterations)
Iteration: 67615   Dual objective     =           972.063537
Iteration: 68434   Dual objective     =           972.063978
Iteration: 69585   Dual objective     =           972.064237
Iteration: 70260   Dual objective     =           972.065064
Iteration: 70869   Dual objective     =           972.065511
Iteration: 71698   Dual objective     =           972.065732
Iteration: 72514   Dual objective     =           972.065997
Iteration: 73161   Dual objective     =           972.066808
Elapsed time = 540.08 sec. (90015.37 ticks, 73218 iterations)
Iteration: 73959   Dual objective     =           972.067015
Iteration: 74607   Dual objective     =           972.067507
Iteration: 75287   Dual objective     =           972.068051
Iteration: 75980   Dual objective     =           972.068769
Iteration: 76697   Dual objective     =           972.069220
Iteration: 77373   Dual objective     =           972.069461
Iteration: 78114   Dual objective     =           972.070407
Iteration: 78966   Dual objective     =           972.071204
Elapsed time = 658.98 sec. (100017.34 ticks, 79722 iterations)
Iteration: 79771   Dual objective     =           972.071552
Iteration: 80589   Dual objective     =           972.071832
Iteration: 81370   Dual objective     =           972.074641
Iteration: 82262   Dual objective     =           972.096171
Iteration: 83610   Dual objective     =           972.098798
Iteration: 84313   Dual objective     =           972.103533
Iteration: 85098   Dual objective     =           972.112960
Iteration: 86089   Dual objective     =           972.171134
Iteration: 86885   Dual objective     =           972.242399
Iteration: 87664   Dual objective     =           972.457108
Markowitz threshold set to 0.1
Iteration: 87905   Dual objective     =           972.654293
Elapsed time = 764.60 sec. (110017.83 ticks, 88866 iterations)
Iteration: 89050   Dual objective     =           973.512558
Iteration: 90357   Dual objective     =           973.626608
Iteration: 90687   Dual objective     =           974.781586
Iteration: 91657   Dual objective     =          1326.543631
Elapsed time = 839.72 sec. (120020.95 ticks, 93320 iterations)
Iteration: 93519   Dual objective     =          1326.547911
Iteration: 95149   Dual objective     =          1326.549305
Iteration: 96431   Dual objective     =          1326.549830
Iteration: 97864   Dual objective     =          1326.550400
Iteration: 99036   Dual objective     =          1326.550868
Iteration: 99886   Dual objective     =          1326.550968
Iteration: 101139   Dual objective     =          1326.550987
Elapsed time = 933.97 sec. (130062.16 ticks, 102160 iterations)
Iteration: 102160   Dual objective     =          1326.551146
Iteration: 103314   Dual objective     =          1326.551370
Iteration: 104323   Dual objective     =          1326.551499
Iteration: 105318   Dual objective     =          1326.551726
Iteration: 106430   Dual objective     =          1326.551858
Iteration: 107538   Dual objective     =          1326.552009
Iteration: 108637   Dual objective     =          1326.552145
Iteration: 109735   Dual objective     =          1326.552327
Iteration: 110911   Dual objective     =          1326.552474
Elapsed time = 1032.03 sec. (140062.20 ticks, 110992 iterations)
Iteration: 111958   Dual objective     =          1326.552604
Iteration: 113016   Dual objective     =          1326.552719
Iteration: 114109   Dual objective     =          1326.552960
Iteration: 115256   Dual objective     =          1326.553175
Iteration: 116367   Dual objective     =          1326.553410
Iteration: 117402   Dual objective     =          1326.553700
Iteration: 118583   Dual objective     =          1326.553946
Iteration: 119688   Dual objective     =          1326.554362
Iteration: 120946   Dual objective     =          1326.553134
Iteration: 122054   Dual objective     =          1326.553340
Iteration: 123178   Dual objective     =          1326.591836
Elapsed time = 1122.35 sec. (150117.00 ticks, 124417 iterations)
Iteration: 124417   Dual objective     =          1326.592095
Iteration: 125802   Dual objective     =          1326.592644
Iteration: 127027   Dual objective     =          1327.719357
Iteration: 128298   Dual objective     =          1328.183428
Iteration: 129506   Dual objective     =          1328.523735
Iteration: 130723   Dual objective     =          1328.523902
Iteration: 132001   Dual objective     =          1328.524082
Iteration: 133170   Dual objective     =          1328.524226
Iteration: 134458   Dual objective     =          1328.524561
Iteration: 135779   Dual objective     =          1328.524857
Iteration: 137179   Dual objective     =          1329.311496
Iteration: 138507   Dual objective     =          1331.060657
Iteration: 140181   Dual objective     =          1331.061235
Iteration: 141665   Dual objective     =          1331.231166
Iteration: 143233   Dual objective     =          1331.231614
Iteration: 144598   Dual objective     =          1331.231941
Elapsed time = 1187.96 sec. (160185.74 ticks, 146080 iterations)
Iteration: 146080   Dual objective     =          1331.239057
Iteration: 147527   Dual objective     =          1331.239197
Iteration: 148936   Dual objective     =          1331.239384
Iteration: 150379   Dual objective     =          1331.239501
Iteration: 151832   Dual objective     =          1331.239658
Iteration: 153383   Dual objective     =          1331.239762
Iteration: 154900   Dual objective     =          1331.239963
Iteration: 156453   Dual objective     =          1331.374929
Iteration: 157784   Dual objective     =          1331.375099
Iteration: 159168   Dual objective     =          1331.375192
Iteration: 160589   Dual objective     =          1331.375337
Iteration: 162118   Dual objective     =          1331.374012
Iteration: 163579   Dual objective     =          1331.374122
Iteration: 164999   Dual objective     =          1331.374409
Iteration: 166373   Dual objective     =          1331.374546
Iteration: 167878   Dual objective     =          1331.374662
Iteration: 169723   Dual objective     =          1331.660708
Iteration: 171363   Dual objective     =          1332.903386
Iteration: 172805   Dual objective     =          1333.151129
Iteration: 174331   Dual objective     =          1333.491040
Iteration: 175706   Dual objective     =          1333.491143
Iteration: 177213   Dual objective     =          1333.491245
Elapsed time = 1231.33 sec. (170185.80 ticks, 178728 iterations)
Iteration: 178869   Dual objective     =          1334.727127
Iteration: 180260   Dual objective     =          1334.963510
Iteration: 181700   Dual objective     =          1334.966747
Iteration: 183397   Dual objective     =          1336.762827
Iteration: 184896   Dual objective     =          1338.456070
Iteration: 186313   Dual objective     =          1338.745257
Iteration: 187753   Dual objective     =          1339.026192
Iteration: 189209   Dual objective     =          1348.703295
Iteration: 190794   Dual objective     =          1359.701363
Iteration: 192173   Dual objective     =          1359.702163
Iteration: 193431   Dual objective     =          1359.703398
Iteration: 194809   Dual objective     =          1359.704449
Iteration: 196212   Dual objective     =          1359.704731
Iteration: 197655   Dual objective     =          1359.913318
Iteration: 199202   Dual objective     =          1359.926284
Iteration: 200508   Dual objective     =          1359.926395
Iteration: 201832   Dual objective     =          1359.928732
Iteration: 202962   Dual objective     =          1359.928790
Iteration: 203891   Dual objective     =          1359.928845
Iteration: 204951   Dual objective     =          1359.928888
Elapsed time = 1269.51 sec. (180186.79 ticks, 206393 iterations)
Iteration: 206781   Dual objective     =          1363.916796
Iteration: 207813   Dual objective     =          1365.058206
Iteration: 208834   Dual objective     =          1365.058278
Iteration: 209909   Dual objective     =          1365.058365
Iteration: 211013   Dual objective     =          1365.058435
Iteration: 212023   Dual objective     =          1365.058486
Iteration: 213163   Dual objective     =          1365.058539
Iteration: 214444   Dual objective     =          1365.058604
Iteration: 215715   Dual objective     =          1365.058645
Iteration: 217045   Dual objective     =          1365.058693
Iteration: 218183   Dual objective     =          1365.058721
Iteration: 219293   Dual objective     =          1365.058755
Iteration: 220353   Dual objective     =          1365.058778
Iteration: 222564   Dual objective     =          1369.183093
Iteration: 224000   Dual objective     =          1369.183234
Iteration: 225189   Dual objective     =          1369.183316
Iteration: 226464   Dual objective     =          1369.183390
Iteration: 227848   Dual objective     =          1369.196981
Iteration: 229045   Dual objective     =          1369.197030
Iteration: 230380   Dual objective     =          1369.197100
Iteration: 231690   Dual objective     =          1369.197151
Elapsed time = 1306.59 sec. (190208.16 ticks, 232884 iterations)
Iteration: 232884   Dual objective     =          1369.197182
Iteration: 234219   Dual objective     =          1369.197218
Iteration: 235393   Dual objective     =          1369.197239
Iteration: 236573   Dual objective     =          1369.197249
Iteration: 237721   Dual objective     =          1369.197256
Iteration: 238966   Dual objective     =          1369.415206
Iteration: 240639   Dual objective     =          1369.415406
Iteration: 242148   Dual objective     =          1369.414722
Iteration: 243323   Dual objective     =          1369.414806
Iteration: 244604   Dual objective     =          1370.116146
Iteration: 245952   Dual objective     =          1370.116215
Iteration: 247173   Dual objective     =          1370.116274
Iteration: 248399   Dual objective     =          1370.116324
Iteration: 249619   Dual objective     =          1370.116368
Iteration: 250816   Dual objective     =          1370.116402
Iteration: 252072   Dual objective     =          1370.116430
Iteration: 253231   Dual objective     =          1370.116443
Iteration: 254233   Dual objective     =          1370.116448
Iteration: 255665   Dual objective     =          1370.116613
Iteration: 257385   Dual objective     =          1370.117167
Iteration: 259062   Dual objective     =          1370.127541
Iteration: 260561   Dual objective     =          1370.134061
Elapsed time = 1335.93 sec. (200216.64 ticks, 260758 iterations)
Iteration: 262272   Dual objective     =          1370.133342
Iteration: 263581   Dual objective     =          1370.133607
Iteration: 264857   Dual objective     =          1370.133763
Iteration: 266127   Dual objective     =          1370.135111
Iteration: 267578   Dual objective     =          1370.264681
Iteration: 269075   Dual objective     =          1370.264849
Iteration: 270489   Dual objective     =          1370.264911
Iteration: 271941   Dual objective     =          1370.264940
Iteration: 273194   Dual objective     =          1370.264946
Iteration: 274969   Dual objective     =          1370.809327
Iteration: 276250   Dual objective     =          1370.809619
Iteration: 277707   Dual objective     =          1371.040452
Iteration: 279100   Dual objective     =          1371.148574
Iteration: 280502   Dual objective     =          1371.148672
Iteration: 281817   Dual objective     =          1371.149733
Iteration: 282954   Dual objective     =          1371.197727
Iteration: 283978   Dual objective     =          1371.197752
Iteration: 284987   Dual objective     =          1371.197763
Iteration: 285962   Dual objective     =          1371.197767
Iteration: 287958   Dual objective     =          1371.405258
Iteration: 289432   Dual objective     =          1375.266647
Elapsed time = 1363.75 sec. (210216.85 ticks, 289898 iterations)
Iteration: 290870   Dual objective     =          1376.211091
Iteration: 292121   Dual objective     =          1376.211164
Iteration: 293367   Dual objective     =          1376.537089
Iteration: 294571   Dual objective     =          1376.537150
Iteration: 295854   Dual objective     =          1376.537204
Iteration: 296956   Dual objective     =          1376.537240
Iteration: 298116   Dual objective     =          1376.537267
Iteration: 299296   Dual objective     =          1376.537295
Iteration: 300369   Dual objective     =          1376.537306
Iteration: 301329   Dual objective     =          1376.626305
Iteration: 302955   Dual objective     =          1377.133085
Iteration: 304651   Dual objective     =          1378.438793
Iteration: 305734   Dual objective     =          1378.438871
Iteration: 306911   Dual objective     =          1378.438951
Iteration: 308020   Dual objective     =          1378.439011
Iteration: 309145   Dual objective     =          1378.439060
Iteration: 310210   Dual objective     =          1378.439097
Iteration: 311348   Dual objective     =          1378.448105
Iteration: 312438   Dual objective     =          1378.448132
Elapsed time = 1395.74 sec. (220219.49 ticks, 313662 iterations)
Iteration: 313662   Dual objective     =          1378.448169
Iteration: 314929   Dual objective     =          1378.448203
Iteration: 315868   Dual objective     =          1378.448206
Iteration: 317681   Dual objective     =          1378.993116
Iteration: 318933   Dual objective     =          1379.405306
Iteration: 320227   Dual objective     =          1379.441926
Iteration: 321472   Dual objective     =          1379.440970
Iteration: 322576   Dual objective     =          1379.441034
Iteration: 323636   Dual objective     =          1379.441083
Iteration: 324777   Dual objective     =          1379.441412
Iteration: 325767   Dual objective     =          1379.441442
Iteration: 326618   Dual objective     =          1379.441459
Iteration: 327528   Dual objective     =          1379.441474
Iteration: 328371   Dual objective     =          1379.441478
Iteration: 330272   Dual objective     =          1380.605460
Iteration: 331639   Dual objective     =          1380.759454
Iteration: 332908   Dual objective     =          1380.759547
Iteration: 334114   Dual objective     =          1380.759637
Iteration: 335218   Dual objective     =          1380.759688
Iteration: 336329   Dual objective     =          1380.759723
Elapsed time = 1432.93 sec. (230219.91 ticks, 336360 iterations)
Iteration: 337359   Dual objective     =          1380.759748
Iteration: 338201   Dual objective     =          1380.759763
Iteration: 338981   Dual objective     =          1380.759770
Iteration: 339782   Dual objective     =          1380.759774
Iteration: 340637   Dual objective     =          1380.879037
Iteration: 342101   Dual objective     =          1380.987844
Iteration: 343301   Dual objective     =          1382.103671
Iteration: 344421   Dual objective     =          1382.140968
Iteration: 345404   Dual objective     =          1382.141148
Iteration: 346771   Dual objective     =          1382.141426
Iteration: 347940   Dual objective     =          1382.222677
Iteration: 348981   Dual objective     =          1382.271612
Iteration: 350082   Dual objective     =          1382.272266
Iteration: 351351   Dual objective     =          1382.272293
Iteration: 352444   Dual objective     =          1382.272311
Iteration: 353406   Dual objective     =          1382.272317
Iteration: 354277   Dual objective     =          1382.883126
Iteration: 355908   Dual objective     =          1384.009923
Elapsed time = 1471.92 sec. (240220.01 ticks, 356021 iterations)
Iteration: 357247   Dual objective     =          1384.162532
Iteration: 358180   Dual objective     =          1384.185290
Iteration: 359217   Dual objective     =          1384.185333
Iteration: 360280   Dual objective     =          1384.195239
Iteration: 361348   Dual objective     =          1384.194237
Iteration: 362239   Dual objective     =          1384.194249
Iteration: 363228   Dual objective     =          1384.194258
Iteration: 364105   Dual objective     =          1384.194262
Iteration: 365372   Dual objective     =          1385.815065
Iteration: 366684   Dual objective     =          1386.271217
Iteration: 367569   Dual objective     =          1386.271294
Iteration: 368668   Dual objective     =          1386.271347
Iteration: 369610   Dual objective     =          1386.271389
Iteration: 371018   Dual objective     =          1386.272975
Iteration: 372082   Dual objective     =          1386.272992
Iteration: 373424   Dual objective     =          1386.273010
Iteration: 374366   Dual objective     =          1386.273014
Iteration: 375846   Dual objective     =          1387.358420
Elapsed time = 1507.51 sec. (250220.17 ticks, 376598 iterations)
Iteration: 377196   Dual objective     =          1387.691087
Iteration: 378354   Dual objective     =          1387.691140
Iteration: 379278   Dual objective     =          1387.691179
Iteration: 380385   Dual objective     =          1387.691211
Iteration: 381455   Dual objective     =          1387.690137
Iteration: 382558   Dual objective     =          1387.690155
Iteration: 383504   Dual objective     =          1387.690167
Iteration: 384367   Dual objective     =          1387.690173
Iteration: 385168   Dual objective     =          1387.690175
Iteration: 386520   Dual objective     =          1388.491256
Iteration: 387570   Dual objective     =          1388.491320
Iteration: 388574   Dual objective     =          1388.491366
Iteration: 389303   Dual objective     =          1388.491430
Iteration: 390188   Dual objective     =          1388.491449
Iteration: 391415   Dual objective     =          1388.491489
Iteration: 392466   Dual objective     =          1388.491503
Iteration: 393439   Dual objective     =          1388.491515
Elapsed time = 1549.92 sec. (260312.77 ticks, 394451 iterations)
Iteration: 394451   Dual objective     =          1388.497362
Iteration: 395939   Dual objective     =          1388.721758
Iteration: 397032   Dual objective     =          1388.721812
Iteration: 398038   Dual objective     =          1388.721833
Iteration: 399003   Dual objective     =          1388.721853
Iteration: 400349   Dual objective     =          1388.721874
Iteration: 401506   Dual objective     =          1388.720794
Iteration: 402642   Dual objective     =          1388.720805
Iteration: 403705   Dual objective     =          1389.332111
Iteration: 404797   Dual objective     =          1389.466312
Iteration: 405670   Dual objective     =          1389.466330
Iteration: 406811   Dual objective     =          1389.466349
Iteration: 407714   Dual objective     =          1389.466358
Iteration: 408825   Dual objective     =          1389.466366
Iteration: 410101   Dual objective     =          1389.466373
Iteration: 411552   Dual objective     =          1389.508121
Iteration: 412496   Dual objective     =          1389.508144
Iteration: 413527   Dual objective     =          1389.508159
Iteration: 414536   Dual objective     =          1389.508167
Elapsed time = 1587.74 sec. (270313.35 ticks, 414788 iterations)
Iteration: 415475   Dual objective     =          1389.508174
Iteration: 416326   Dual objective     =          1389.508192
Iteration: 417231   Dual objective     =          1389.508207
Iteration: 418241   Dual objective     =          1389.509061
Iteration: 419120   Dual objective     =          1389.509086
Iteration: 420014   Dual objective     =          1389.509099
Iteration: 420825   Dual objective     =          1389.508084
Iteration: 421755   Dual objective     =          1389.508089
Iteration: 422626   Dual objective     =          1389.508091
Iteration: 423476   Dual objective     =          1389.508093
Iteration: 424509   Dual objective     =          1389.509226
Iteration: 425240   Dual objective     =          1389.509238
Iteration: 426037   Dual objective     =          1389.509247
Iteration: 426845   Dual objective     =          1389.509250
Iteration: 427672   Dual objective     =          1389.509253
Iteration: 428565   Dual objective     =          1389.509268
Iteration: 429365   Dual objective     =          1389.509276
Elapsed time = 1627.90 sec. (280313.57 ticks, 430071 iterations)
Iteration: 430196   Dual objective     =          1389.509285
Iteration: 430998   Dual objective     =          1389.509287
Iteration: 431911   Dual objective     =          1389.510482
Iteration: 432692   Dual objective     =          1389.510490
Iteration: 433495   Dual objective     =          1389.510494
Iteration: 434235   Dual objective     =          1389.510495
Iteration: 435027   Dual objective     =          1389.521651
Iteration: 435725   Dual objective     =          1389.521656
Iteration: 436412   Dual objective     =          1389.521658
Iteration: 437147   Dual objective     =          1389.521659
Iteration: 437959   Dual objective     =          1389.523611
Iteration: 438659   Dual objective     =          1389.523614
Iteration: 439344   Dual objective     =          1389.523615
Iteration: 440136   Dual objective     =          1389.524868
Iteration: 440854   Dual objective     =          1389.524059
Iteration: 441538   Dual objective     =          1389.524059
Elapsed time = 1671.64 sec. (290314.00 ticks, 441539 iterations)
Iteration: 442298   Dual objective     =          1389.524072
Iteration: 443067   Dual objective     =          1389.524082
Iteration: 443794   Dual objective     =          1389.524087
Iteration: 444523   Dual objective     =          1389.524089
Iteration: 445257   Dual objective     =          1389.680752
Iteration: 446076   Dual objective     =          1389.680754
Iteration: 446890   Dual objective     =          1389.684900
Iteration: 447629   Dual objective     =          1389.684901
Iteration: 448391   Dual objective     =          1389.684907
Iteration: 449081   Dual objective     =          1389.684913
Iteration: 449730   Dual objective     =          1389.684913
Iteration: 450498   Dual objective     =          1389.685072
Iteration: 451343   Dual objective     =          1389.685132
Iteration: 452168   Dual objective     =          1389.689488
Removing perturbation.
Iteration: 452702    Objective     =          1389.585632
Iteration: 452706   Dual objective     =          1389.585627

Dual simplex solved model.

